c this is nonogram instance
p cnf 680
t00 t01 0
t10 0
t20 t21 0
t30 t31 0
t40 t41 0
t50 0
t60 0
t70 t71 0
t80 t81 0
t90 0
t100 t101 0
t110 t111 0
t120 t121 t122 t123 0
t130 t131 0
t140 t141 t142 t143 t144 0
t150 t151 0
t160 t161 0
t170 t171 0
t180 t181 0
t190 0
t200 0
t210 t211 t212 t213 t214 t215 0
t220 0
t230 t231 0
t240 t241 0
t250 t251 t252 t253 0
t260 0
t270 t271 t272 t273 t274 0
t280 t281 t282 t283 0
t290 t291 t292 t293 t294 t295 0
t300 t301 0
t310 0
t320 t321 t322 t323 t324 t325 0
t330 t331 t332 t333 t334 0
t340 t341 0
t350 0
t360 t361 t362 t363 0
t370 0
t380 t381 t382 t383 0
t390 t391 0
t400 t401 0
t410 t411 0
t420 t421 0
t430 t431 0
t440 0
t450 0
t460 t461 t462 t463 t464 0
t470 t471 0
t480 0
t490 t491 t492 t493 0
t500 0
t510 t511 t512 t513 0
t520 t521 0
t530 t531 t532 t533 t534 t535 0
t540 t541 t542 t543 t544 0
t550 0
t560 t561 t562 t563 t564 t565 0
t570 t571 t572 t573 t574 t575 0
t580 t581 t582 t583 t584 0
t590 0
t600 0
t610 t611 t612 t613 t614 t615 0
t620 t621 t622 t623 t624 t625 0
t630 t631 0
t640 t641 0
t650 t651 0
t660 t661 t662 t663 0
t670 t671 t672 t673 0
t680 t681 0
-t680 -t681
-t40 -t41
-t410 -t411
-t340 -t341
-t130 -t131
-t20 -t21
-t100 -t101
-t170 -t171
-t390 -t391
-t80 -t81
-t00 -t01
-t630 -t631
-t520 -t521
-t400 -t401
-t110 -t111
-t640 -t641
-t530 -t531
-t530 -t532
-t530 -t533
-t530 -t534
-t530 -t535
-t531 -t532
-t531 -t533
-t531 -t534
-t531 -t535
-t532 -t533
-t532 -t534
-t532 -t535
-t533 -t534
-t533 -t535
-t534 -t535
-t210 -t211
-t210 -t212
-t210 -t213
-t210 -t214
-t210 -t215
-t211 -t212
-t211 -t213
-t211 -t214
-t211 -t215
-t212 -t213
-t212 -t214
-t212 -t215
-t213 -t214
-t213 -t215
-t214 -t215
-t610 -t611
-t610 -t612
-t610 -t613
-t610 -t614
-t610 -t615
-t611 -t612
-t611 -t613
-t611 -t614
-t611 -t615
-t612 -t613
-t612 -t614
-t612 -t615
-t613 -t614
-t613 -t615
-t614 -t615
-t570 -t571
-t570 -t572
-t570 -t573
-t570 -t574
-t570 -t575
-t571 -t572
-t571 -t573
-t571 -t574
-t571 -t575
-t572 -t573
-t572 -t574
-t572 -t575
-t573 -t574
-t573 -t575
-t574 -t575
-t580 -t581
-t580 -t582
-t580 -t583
-t580 -t584
-t581 -t582
-t581 -t583
-t581 -t584
-t582 -t583
-t582 -t584
-t583 -t584
-t140 -t141
-t140 -t142
-t140 -t143
-t140 -t144
-t141 -t142
-t141 -t143
-t141 -t144
-t142 -t143
-t142 -t144
-t143 -t144
-t270 -t271
-t270 -t272
-t270 -t273
-t270 -t274
-t271 -t272
-t271 -t273
-t271 -t274
-t272 -t273
-t272 -t274
-t273 -t274
-t380 -t381
-t380 -t382
-t380 -t383
-t381 -t382
-t381 -t383
-t382 -t383
-t280 -t281
-t280 -t282
-t280 -t283
-t281 -t282
-t281 -t283
-t282 -t283
-t70 -t71
-t470 -t471
-t150 -t151
-t360 -t361
-t360 -t362
-t360 -t363
-t361 -t362
-t361 -t363
-t362 -t363
-t650 -t651
-t180 -t181
-t430 -t431
-t230 -t231
-t420 -t421
-t240 -t241
-t300 -t301
-t490 -t491
-t490 -t492
-t490 -t493
-t491 -t492
-t491 -t493
-t492 -t493
-t660 -t661
-t660 -t662
-t660 -t663
-t661 -t662
-t661 -t663
-t662 -t663
-t120 -t121
-t120 -t122
-t120 -t123
-t121 -t122
-t121 -t123
-t122 -t123
-t330 -t331
-t330 -t332
-t330 -t333
-t330 -t334
-t331 -t332
-t331 -t333
-t331 -t334
-t332 -t333
-t332 -t334
-t333 -t334
-t160 -t161
-t540 -t541
-t540 -t542
-t540 -t543
-t540 -t544
-t541 -t542
-t541 -t543
-t541 -t544
-t542 -t543
-t542 -t544
-t543 -t544
-t30 -t31
-t460 -t461
-t460 -t462
-t460 -t463
-t460 -t464
-t461 -t462
-t461 -t463
-t461 -t464
-t462 -t463
-t462 -t464
-t463 -t464
-t670 -t671
-t670 -t672
-t670 -t673
-t671 -t672
-t671 -t673
-t672 -t673
-t250 -t251
-t250 -t252
-t250 -t253
-t251 -t252
-t251 -t253
-t252 -t253
-t510 -t511
-t510 -t512
-t510 -t513
-t511 -t512
-t511 -t513
-t512 -t513
-t620 -t621
-t620 -t622
-t620 -t623
-t620 -t624
-t620 -t625
-t621 -t622
-t621 -t623
-t621 -t624
-t621 -t625
-t622 -t623
-t622 -t624
-t622 -t625
-t623 -t624
-t623 -t625
-t624 -t625
-t290 -t291
-t290 -t292
-t290 -t293
-t290 -t294
-t290 -t295
-t291 -t292
-t291 -t293
-t291 -t294
-t291 -t295
-t292 -t293
-t292 -t294
-t292 -t295
-t293 -t294
-t293 -t295
-t294 -t295
-t560 -t561
-t560 -t562
-t560 -t563
-t560 -t564
-t560 -t565
-t561 -t562
-t561 -t563
-t561 -t564
-t561 -t565
-t562 -t563
-t562 -t564
-t562 -t565
-t563 -t564
-t563 -t565
-t564 -t565
-t320 -t321
-t320 -t322
-t320 -t323
-t320 -t324
-t320 -t325
-t321 -t322
-t321 -t323
-t321 -t324
-t321 -t325
-t322 -t323
-t322 -t324
-t322 -t325
-t323 -t324
-t323 -t325
-t324 -t325